100 1315638820
78 82 75 89 31 80 9 69 73 21 68 7 100 47 54 51 88 39 99 90 87 25 62 34 14 67 37 71 33 65 45 17 50 26 81 19 42 38 36 95 27 13 12 84 61 18 86 72 32 1 52 48 6 92 3 4 79 22 16 58 53 77 49 63 60 8 56 93 46 85 96 2 59 24 57 70 28 98 20 41 43 5 30 23 91 10 35 83 40 64 66 55 76 97 94 15 74 44 11 29 
